130 5
10 10 10 10 10 

0 0 0 0 0 0 1 2 
0 0 0 0 0 0 3 3 4 12 
7 0 0 1 0 0 2 7 5 
2 0 0 4 0 0 1 5 
3 0 0 4 0 0 1 6 
4 0 0 3 0 0 1 8 
4 0 0 4 0 0 1 8 
2 0 0 1 0 0 1 9 
2 0 0 1 0 0 1 10 
6 0 0 1 0 0 1 11 
2 0 0 3 0 0 1 13 
9 0 0 3 0 0 1 13 
0 0 0 0 0 0 2 14 26 
0 0 0 0 0 0 1 15 
8 0 0 0 0 1 2 24 16 
7 0 0 0 0 1 2 20 17 
6 0 0 0 0 1 1 18 
4 0 0 0 0 2 1 19 
7 0 0 0 0 3 2 23 21 
7 0 0 0 0 1 2 23 22 
10 0 0 0 0 3 2 22 109 
7 0 0 0 0 2 1 25 
9 0 0 0 0 4 1 25 
6 0 0 0 0 7 1 25 
0 0 0 0 0 0 1 38 
0 0 0 0 0 0 3 27 29 68 
10 0 0 0 0 1 1 28 
10 0 0 0 0 3 2 36 31 
10 0 0 0 0 2 2 32 30 
10 0 0 0 0 2 2 36 33 
4 0 0 0 0 2 1 32 
4 0 0 0 0 2 1 33 
4 0 0 0 0 3 1 34 
7 0 0 0 0 3 1 35 
2 0 0 0 0 3 1 37 
9 0 0 0 0 4 1 37 
0 0 0 0 0 0 1 38 
0 0 0 0 0 0 3 39 61 73 
0 0 0 0 0 0 3 40 43 46 
6 0 0 1 0 1 1 41 
1 0 0 1 0 2 1 42 
8 0 0 2 0 2 1 44 
3 0 0 4 0 7 2 48 47 
8 0 0 3 0 1 1 45 
8 0 0 2 0 3 2 52 48 
9 0 0 4 0 1 2 52 48 
3 0 0 5 0 2 2 52 50 
1 0 0 2 0 2 1 49 
8 0 0 1 0 3 1 50 
9 0 0 3 0 2 2 51 85 
9 0 0 3 0 5 2 59 53 
8 0 0 3 0 2 2 59 53 
5 0 0 4 0 2 1 54 
3 0 0 3 0 2 1 55 
7 0 0 1 0 4 1 56 
5 0 0 1 0 1 1 57 
1 0 0 2 0 3 1 58 
10 0 0 3 0 3 1 60 
6 0 0 2 0 2 1 60 
0 0 0 0 0 0 1 119 
0 0 0 0 0 0 2 62 69 
7 0 0 1 0 0 1 63 
9 0 0 2 0 0 1 64 
1 0 0 2 0 0 2 66 65 
1 0 0 5 0 0 1 67 
8 0 0 1 0 0 1 67 
7 0 0 2 0 0 1 68 
4 0 0 2 0 0 2 71 70 
3 0 0 3 0 0 1 70 
7 0 0 4 0 0 1 72 
2 0 0 3 0 0 1 72 
0 0 0 0 0 0 2 95 107 
0 0 0 0 0 0 2 74 90 
3 0 0 0 1 1 3 93 88 75 
9 0 0 0 6 3 1 76 
7 0 0 0 1 2 1 77 
3 0 0 0 1 2 1 78 
7 0 0 0 1 1 2 92 79 
1 0 0 0 4 4 1 80 
2 0 0 0 5 3 2 86 81 
9 0 0 0 2 2 1 82 
2 0 0 0 4 3 1 83 
1 0 0 0 1 3 1 84 
7 0 0 0 2 4 1 85 
6 0 0 0 2 2 1 87 
9 0 0 0 3 2 1 87 
4 0 0 0 2 3 1 89 
7 0 0 0 2 4 1 89 
3 0 0 0 5 2 1 91 
1 0 0 0 1 1 1 91 
4 0 0 0 2 2 1 94 
3 0 0 0 3 1 1 94 
7 0 0 0 2 5 1 94 
0 0 0 0 0 0 1 119 
0 0 0 0 0 0 1 96 
9 0 1 0 0 0 2 98 97 
5 0 2 0 0 0 2 105 99 
2 0 2 0 0 0 2 104 100 
2 0 2 0 0 0 1 100 
9 0 2 0 0 0 1 101 
10 0 3 0 0 0 1 102 
1 0 3 0 0 0 1 103 
10 0 1 0 0 0 1 106 
7 0 4 0 0 0 1 106 
8 0 5 0 0 0 1 106 
0 0 0 0 0 0 1 119 
0 0 0 0 0 0 1 108 
4 0 1 0 0 0 1 109 
6 0 3 0 0 0 2 113 110 
3 0 3 0 0 0 2 112 111 
2 0 5 0 0 0 1 114 
3 0 2 0 0 0 1 114 
10 0 3 0 0 0 1 114 
1 0 3 0 0 0 2 117 115 
6 0 1 0 0 0 1 116 
10 0 1 0 0 0 1 118 
3 0 3 0 0 0 1 118 
0 0 0 0 0 0 1 119 
0 0 0 0 0 0 1 120 
9 1 0 0 0 0 2 124 121 
7 2 0 0 0 0 1 122 
6 2 0 0 0 0 1 123 
6 3 0 0 0 0 3 129 128 125 
10 3 0 0 0 0 2 129 128 
5 3 0 0 0 0 1 126 
6 4 0 0 0 0 1 127 
10 3 0 0 0 0 1 130 
10 3 0 0 0 0 1 130 
8 1 0 0 0 0 1 130 
0 0 0 0 0 0 0 
